; --full-saturate-quant --inst-when=full-last-call --inst-no-entail --term-db-mode=relevant --random-seed=1 --lang=smt2 --tlimit 692
;(set-option :produce-unsat-cores true)
(set-logic ALL_SUPPORTED)
(declare-sort A$ 0)
(declare-sort Nat$ 0)
(declare-sort A_set$ 0)
(declare-sort A_bool_fun$ 0)
(declare-sort A_set_a_set_fun$ 0)
(declare-sort A_bool_fun_a_bool_fun_fun$ 0)
(declare-datatypes () ((A_tree$ (leaf$ (select$ Nat$) (selecta$ A$)) (innerNode$ (selectb$ Nat$) (selectc$ A_tree$) (selectd$ A_tree$)))))
(declare-fun bot$ () A_set$)
(declare-fun inf$ (A_set$) A_set_a_set_fun$)
(declare-fun t_1$ () A_tree$)
(declare-fun t_2$ () A_tree$)
(declare-fun bot$a () A_bool_fun$)
(declare-fun inf$a (A_bool_fun$) A_bool_fun_a_bool_fun_fun$)
(declare-fun inf$b (Bool Bool) Bool)
(declare-fun member$ (A$ A_set$) Bool)
(declare-fun collect$ (A_bool_fun$) A_set$)
(declare-fun fun_app$ (A_set_a_set_fun$ A_set$) A_set$)
(declare-fun alphabet$ (A_tree$) A_set$)
(declare-fun fun_app$a (A_bool_fun_a_bool_fun_fun$ A_bool_fun$) A_bool_fun$)
(declare-fun fun_app$b (A_bool_fun$ A$) Bool)
(declare-fun consistent$ (A_tree$) Bool)
(declare-fun uniteTrees$ (A_tree$ A_tree$) A_tree$)
(assert (! (not (consistent$ (uniteTrees$ t_1$ t_2$))) :named a0))
(assert (! (consistent$ t_1$) :named a1))
(assert (! (consistent$ t_2$) :named a2))
(assert (! (= (fun_app$ (inf$ (alphabet$ t_1$)) (alphabet$ t_2$)) bot$) :named a3))
(assert (! (forall ((?v0 A_tree$)) (exists ((?v1 A$)) (member$ ?v1 (alphabet$ ?v0)))) :named a4))
(assert (! (forall ((?v0 A_bool_fun$)) (= (fun_app$a (inf$a ?v0) bot$a) bot$a)) :named a5))
(assert (! (forall ((?v0 A_set$)) (= (fun_app$ (inf$ ?v0) bot$) bot$)) :named a6))
(assert (! (forall ((?v0 A_bool_fun$)) (= (fun_app$a (inf$a bot$a) ?v0) bot$a)) :named a7))
(assert (! (forall ((?v0 A_set$)) (= (fun_app$ (inf$ bot$) ?v0) bot$)) :named a8))
(assert (! (forall ((?v0 A$) (?v1 A_set$) (?v2 A_set$)) (= (member$ ?v0 (fun_app$ (inf$ ?v1) ?v2)) (and (member$ ?v0 ?v1) (member$ ?v0 ?v2)))) :named a9))
(assert (! (forall ((?v0 A$) (?v1 A_set$) (?v2 A_set$)) (=> (and (member$ ?v0 ?v1) (member$ ?v0 ?v2)) (member$ ?v0 (fun_app$ (inf$ ?v1) ?v2)))) :named a10))
(assert (! (forall ((?v0 A_bool_fun$) (?v1 A_bool_fun$) (?v2 A$)) (! (= (fun_app$b (fun_app$a (inf$a ?v0) ?v1) ?v2) (inf$b (fun_app$b ?v0 ?v2) (fun_app$b ?v1 ?v2))) :pattern ((fun_app$b (fun_app$a (inf$a ?v0) ?v1) ?v2)))) :named a11))
(assert (! (forall ((?v0 A_bool_fun$) (?v1 A_bool_fun$)) (= (fun_app$a (inf$a (fun_app$a (inf$a ?v0) ?v1)) ?v1) (fun_app$a (inf$a ?v0) ?v1))) :named a12))
(assert (! (forall ((?v0 A_set$) (?v1 A_set$)) (= (fun_app$ (inf$ (fun_app$ (inf$ ?v0) ?v1)) ?v1) (fun_app$ (inf$ ?v0) ?v1))) :named a13))
(assert (! (forall ((?v0 A_bool_fun$) (?v1 A_bool_fun$)) (= (fun_app$a (inf$a (fun_app$a (inf$a ?v0) ?v1)) ?v1) (fun_app$a (inf$a ?v0) ?v1))) :named a14))
(assert (! (forall ((?v0 A_set$) (?v1 A_set$)) (= (fun_app$ (inf$ (fun_app$ (inf$ ?v0) ?v1)) ?v1) (fun_app$ (inf$ ?v0) ?v1))) :named a15))
(assert (! (forall ((?v0 A_bool_fun$) (?v1 A_bool_fun$)) (= (fun_app$a (inf$a ?v0) (fun_app$a (inf$a ?v0) ?v1)) (fun_app$a (inf$a ?v0) ?v1))) :named a16))
(assert (! (forall ((?v0 A_set$) (?v1 A_set$)) (= (fun_app$ (inf$ ?v0) (fun_app$ (inf$ ?v0) ?v1)) (fun_app$ (inf$ ?v0) ?v1))) :named a17))
(assert (! (forall ((?v0 A_bool_fun$) (?v1 A_bool_fun$)) (= (fun_app$a (inf$a ?v0) (fun_app$a (inf$a ?v0) ?v1)) (fun_app$a (inf$a ?v0) ?v1))) :named a18))
(assert (! (forall ((?v0 A_set$) (?v1 A_set$)) (= (fun_app$ (inf$ ?v0) (fun_app$ (inf$ ?v0) ?v1)) (fun_app$ (inf$ ?v0) ?v1))) :named a19))
(assert (! (forall ((?v0 A_bool_fun$)) (! (= (fun_app$a (inf$a ?v0) ?v0) ?v0) :pattern ((inf$a ?v0)))) :named a20))
(assert (! (forall ((?v0 A_set$)) (! (= (fun_app$ (inf$ ?v0) ?v0) ?v0) :pattern ((inf$ ?v0)))) :named a21))
(assert (! (forall ((?v0 A_bool_fun$)) (! (= (fun_app$a (inf$a ?v0) ?v0) ?v0) :pattern ((inf$a ?v0)))) :named a22))
(assert (! (forall ((?v0 A_set$)) (! (= (fun_app$ (inf$ ?v0) ?v0) ?v0) :pattern ((inf$ ?v0)))) :named a23))
(assert (! (forall ((?v0 A_bool_fun$)) (= (= (collect$ ?v0) bot$) (forall ((?v1 A$)) (not (fun_app$b ?v0 ?v1))))) :named a24))
(assert (! (forall ((?v0 A$)) (= (member$ ?v0 bot$) false)) :named a25))
(assert (! (forall ((?v0 A_bool_fun$)) (= (= bot$ (collect$ ?v0)) (forall ((?v1 A$)) (not (fun_app$b ?v0 ?v1))))) :named a26))
(assert (! (forall ((?v0 A_set$)) (= (forall ((?v1 A$)) (not (member$ ?v1 ?v0))) (= ?v0 bot$))) :named a27))
(assert (! (= bot$ (collect$ bot$a)) :named a28))
(check-sat)
;(get-unsat-core)
